Route #1: 26 7 11 38 10 
Route #2: 4 47 36 21 28 
Route #3: 17 25 18 44 3 16 2 
Route #4: 22 42 41 43 49 24 32 
Route #5: 27 29 48 1 23 33 6 
Route #6: 34 46 35 14 19 8 
Route #7: 12 39 31 9 40 
Route #8: 30 5 37 20 15 13 45 
cost 708.164
execution_time 59.065
